results/res_prop_muc/res_Cimatti_mathsat_cores/QF_UF/PEQ010_size5.smt.smt2.out

real	0m0.098s
user	0m0.049s
sys	0m0.010s
