results/res_prop_muc/res_Cimatti_mathsat_cores/QF_UF/PEQ010_size5.smt.smt2.res
unsat
( _c0
  _c1
  _c162
  _c167
  _c207
  _c208
  _c209
  _c210
  _c211
  _c352
  _c358
  _c359
  _c360
  _c361
  _c362
  _c363
  _c383
  _c384
  _c385
  _c386
  _c387
  _c388
  _c468
  _c469
  _c470
  _c471
  _c472
  _c474 )
